; DUP2 DUP4 PUSH cw_3 SWAP1 SWAP2 => DUP3 PUSH cw_3 DUP4
(set-option :produce-proofs true)
; 
(set-info :status unknown)
(declare-fun storage_t ((_ BitVec 256) (_ BitVec 256) (_ BitVec 256) (_ BitVec 256) Int (_ BitVec 256)) (_ BitVec 256))
(declare-fun w_3 () (_ BitVec 256))
(declare-fun storage_s ((_ BitVec 256) (_ BitVec 256) (_ BitVec 256) (_ BitVec 256) Int (_ BitVec 256)) (_ BitVec 256))
(declare-fun exc_halt_t (Int) Bool)
(declare-fun exc_halt_s (Int) Bool)
(declare-fun stack_t ((_ BitVec 256) (_ BitVec 256) (_ BitVec 256) (_ BitVec 256) Int (_ BitVec 6)) (_ BitVec 256))
(declare-fun stack_s ((_ BitVec 256) (_ BitVec 256) (_ BitVec 256) (_ BitVec 256) Int (_ BitVec 6)) (_ BitVec 256))
(declare-fun sc_t (Int) (_ BitVec 6))
(declare-fun sc_s (Int) (_ BitVec 6))
(declare-fun used_gas_t ((_ BitVec 256) (_ BitVec 256) (_ BitVec 256) (_ BitVec 256) Int) Int)
(declare-fun used_gas_s ((_ BitVec 256) (_ BitVec 256) (_ BitVec 256) (_ BitVec 256) Int) Int)
(assert
 (exists ((x_0 (_ BitVec 256)) (x_1 (_ BitVec 256)) (x_2 (_ BitVec 256)) )(let (($x6175 (forall ((w (_ BitVec 256)) )(let ((?x8042 (storage_t x_0 x_1 x_2 w_3 3 w)))
 (let ((?x6794 (storage_s x_0 x_1 x_2 w_3 5 w)))
 (= ?x6794 ?x8042))))
 ))
 (let (($x3614 (exc_halt_t 3)))
 (let (($x11317 (exc_halt_s 5)))
 (let (($x3494 (= $x11317 $x3614)))
 (let (($x11594 (forall ((n (_ BitVec 6)) )(let ((?x5627 (stack_t x_0 x_1 x_2 w_3 3 n)))
 (let ((?x850 (stack_s x_0 x_1 x_2 w_3 5 n)))
 (let (($x11311 (= ?x850 ?x5627)))
 (let ((?x11304 (sc_t 3)))
 (let (($x2531 (bvsle ?x11304 n)))
 (or $x2531 $x11311)))))))
 ))
 (let ((?x11304 (sc_t 3)))
 (let ((?x4319 (sc_s 5)))
 (let (($x1839 (= ?x4319 ?x11304)))
 (let ((?x753 (used_gas_t x_0 x_1 x_2 w_3 0)))
 (let ((?x1224 (used_gas_s x_0 x_1 x_2 w_3 0)))
 (let (($x3048 (= ?x1224 ?x753)))
 (let (($x5331 (forall ((w (_ BitVec 256)) )(let ((?x7422 (storage_t x_0 x_1 x_2 w_3 0 w)))
 (let ((?x4935 (storage_s x_0 x_1 x_2 w_3 0 w)))
 (= ?x4935 ?x7422))))
 ))
 (let (($x56 (exc_halt_t 0)))
 (let (($x57 (exc_halt_s 0)))
 (let (($x58 (= $x57 $x56)))
 (let (($x7959 (forall ((n (_ BitVec 6)) )(let ((?x63 (sc_t 0)))
 (let (($x4912 (bvsle ?x63 n)))
 (let ((?x1730 (stack_t x_0 x_1 x_2 w_3 0 n)))
 (let ((?x6839 (stack_s x_0 x_1 x_2 w_3 0 n)))
 (let (($x4581 (= ?x6839 ?x1730)))
 (or $x4581 $x4912)))))))
 ))
 (let ((?x63 (sc_t 0)))
 (let ((?x72 (sc_s 0)))
 (let (($x73 (= ?x72 ?x63)))
 (let (($x6212 (not (bvsle (_ bv0 6) (bvadd (_ bv60 6) (sc_t 2))))))
 (let (($x4045 (exc_halt_t 2)))
 (let (($x1234 (or $x4045 $x6212 (not (= ((_ extract 6 6) (bvadd (_ bv1 7) (concat (_ bv0 1) (sc_t 2)))) (_ bv0 1))))))
 (let (($x6313 (forall ((w (_ BitVec 256)) )(let ((?x3606 (storage_t x_0 x_1 x_2 w_3 2 w)))
 (let ((?x8042 (storage_t x_0 x_1 x_2 w_3 3 w)))
 (= ?x8042 ?x3606))))
 ))
 (let (($x10319 (forall ((n (_ BitVec 6)) )(let ((?x6158 (sc_t 2)))
 (let ((?x1786 (bvadd (_ bv60 6) ?x6158)))
 (let (($x10162 (bvsle ?x1786 n)))
 (let ((?x9667 (stack_t x_0 x_1 x_2 w_3 2 n)))
 (let ((?x5627 (stack_t x_0 x_1 x_2 w_3 3 n)))
 (or (= ?x5627 ?x9667) $x10162)))))))
 ))
 (let (($x1932 (= (used_gas_t x_0 x_1 x_2 w_3 3) (+ 3 (used_gas_t x_0 x_1 x_2 w_3 2)))))
 (let (($x8109 (= (stack_t x_0 x_1 x_2 w_3 3 (bvadd (_ bv63 6) (sc_t 2))) (stack_t x_0 x_1 x_2 w_3 2 (bvadd (_ bv63 6) (sc_t 2))))))
 (let (($x146 (= (stack_t x_0 x_1 x_2 w_3 3 (bvadd (_ bv62 6) (sc_t 2))) (stack_t x_0 x_1 x_2 w_3 2 (bvadd (_ bv62 6) (sc_t 2))))))
 (let (($x9413 (= (stack_t x_0 x_1 x_2 w_3 3 (bvadd (_ bv61 6) (sc_t 2))) (stack_t x_0 x_1 x_2 w_3 2 (bvadd (_ bv61 6) (sc_t 2))))))
 (let ((?x6158 (sc_t 2)))
 (let ((?x1786 (bvadd (_ bv60 6) ?x6158)))
 (let ((?x3505 (stack_t x_0 x_1 x_2 w_3 2 ?x1786)))
 (let (($x8377 (exc_halt_t 1)))
 (let (($x543 (or $x8377 (not (= ((_ extract 6 6) (bvadd (_ bv1 7) (concat (_ bv0 1) (sc_t 1)))) (_ bv0 1))))))
 (let (($x7807 (= $x4045 $x543)))
 (let (($x11418 (forall ((w (_ BitVec 256)) )(let ((?x6982 (storage_t x_0 x_1 x_2 w_3 1 w)))
 (let ((?x3606 (storage_t x_0 x_1 x_2 w_3 2 w)))
 (= ?x3606 ?x6982))))
 ))
 (let (($x3313 (forall ((n (_ BitVec 6)) )(let ((?x7154 (sc_t 1)))
 (let (($x3152 (bvsle ?x7154 n)))
 (let ((?x589 (stack_t x_0 x_1 x_2 w_3 1 n)))
 (let ((?x9667 (stack_t x_0 x_1 x_2 w_3 2 n)))
 (or (= ?x9667 ?x589) $x3152))))))
 ))
 (let (($x912 (= ?x6158 (bvadd (_ bv1 6) (sc_t 1)))))
 (let ((?x10077 (used_gas_t x_0 x_1 x_2 w_3 2)))
 (let (($x2246 (not (= ((_ extract 6 6) (bvadd (_ bv1 7) (concat (_ bv0 1) ?x63))) (_ bv0 1)))))
 (let (($x7581 (forall ((w (_ BitVec 256)) )(let ((?x7422 (storage_t x_0 x_1 x_2 w_3 0 w)))
 (let ((?x6982 (storage_t x_0 x_1 x_2 w_3 1 w)))
 (= ?x6982 ?x7422))))
 ))
 (let (($x2623 (forall ((n (_ BitVec 6)) )(let ((?x1730 (stack_t x_0 x_1 x_2 w_3 0 n)))
 (let ((?x589 (stack_t x_0 x_1 x_2 w_3 1 n)))
 (or (bvsle (bvadd (_ bv61 6) (sc_t 0)) n) (= ?x589 ?x1730)))))
 ))
 (let ((?x7154 (sc_t 1)))
 (let (($x4376 (= ?x7154 (bvadd (_ bv1 6) ?x63))))
 (let (($x2920 (= (stack_t x_0 x_1 x_2 w_3 1 (bvadd (_ bv63 6) ?x63)) (stack_t x_0 x_1 x_2 w_3 0 (bvadd (_ bv63 6) ?x63)))))
 (let (($x1288 (= (stack_t x_0 x_1 x_2 w_3 1 (bvadd (_ bv62 6) ?x63)) (stack_t x_0 x_1 x_2 w_3 0 (bvadd (_ bv62 6) ?x63)))))
 (let ((?x7003 (bvadd (_ bv61 6) ?x63)))
 (let ((?x4541 (stack_t x_0 x_1 x_2 w_3 0 ?x7003)))
 (let (($x8386 (= $x11317 (or (exc_halt_s 4) (not (bvsle (_ bv0 6) (bvadd (_ bv61 6) (sc_s 4))))))))
 (let (($x9497 (forall ((w (_ BitVec 256)) )(let ((?x1828 (storage_s x_0 x_1 x_2 w_3 4 w)))
 (let ((?x6794 (storage_s x_0 x_1 x_2 w_3 5 w)))
 (= ?x6794 ?x1828))))
 ))
 (let (($x10676 (forall ((n (_ BitVec 6)) )(let ((?x10589 (stack_s x_0 x_1 x_2 w_3 4 n)))
 (let ((?x850 (stack_s x_0 x_1 x_2 w_3 5 n)))
 (or (= ?x850 ?x10589) (bvsle (bvadd (_ bv61 6) (sc_s 4)) n)))))
 ))
 (let ((?x4305 (sc_s 4)))
 (let (($x11146 (= ?x4319 ?x4305)))
 (let (($x3949 (= (used_gas_s x_0 x_1 x_2 w_3 5) (+ 3 (used_gas_s x_0 x_1 x_2 w_3 4)))))
 (let ((?x4255 (stack_s x_0 x_1 x_2 w_3 4 (bvadd (_ bv62 6) ?x4305))))
 (let ((?x4799 (bvadd (_ bv63 6) ?x4305)))
 (let ((?x6799 (stack_s x_0 x_1 x_2 w_3 4 ?x4799)))
 (let (($x1998 (= (stack_s x_0 x_1 x_2 w_3 5 (bvadd (_ bv63 6) ?x4319)) (stack_s x_0 x_1 x_2 w_3 4 (bvadd (_ bv61 6) ?x4305)))))
 (let (($x7172 (exc_halt_s 4)))
 (let (($x3661 (= $x7172 (or (exc_halt_s 3) (not (bvsle (_ bv0 6) (bvadd (_ bv62 6) (sc_s 3))))))))
 (let (($x4154 (forall ((w (_ BitVec 256)) )(let ((?x9166 (storage_s x_0 x_1 x_2 w_3 3 w)))
 (let ((?x1828 (storage_s x_0 x_1 x_2 w_3 4 w)))
 (= ?x1828 ?x9166))))
 ))
 (let (($x7703 (forall ((n (_ BitVec 6)) )(let ((?x275 (sc_s 3)))
 (let ((?x8389 (bvadd (_ bv62 6) ?x275)))
 (let (($x7044 (bvsle ?x8389 n)))
 (let ((?x4766 (stack_s x_0 x_1 x_2 w_3 3 n)))
 (let ((?x10589 (stack_s x_0 x_1 x_2 w_3 4 n)))
 (or (= ?x10589 ?x4766) $x7044)))))))
 ))
 (let ((?x1279 (used_gas_s x_0 x_1 x_2 w_3 4)))
 (let (($x6279 (= ?x4255 (stack_s x_0 x_1 x_2 w_3 3 (bvadd (_ bv63 6) (sc_s 3))))))
 (let (($x4241 (= ?x6799 (stack_s x_0 x_1 x_2 w_3 3 (bvadd (_ bv62 6) (sc_s 3))))))
 (let (($x247 (exc_halt_s 2)))
 (let (($x105 (or $x247 (not (= ((_ extract 6 6) (bvadd (_ bv1 7) (concat (_ bv0 1) (sc_s 2)))) (_ bv0 1))))))
 (let (($x292 (exc_halt_s 3)))
 (let (($x4286 (= $x292 $x105)))
 (let (($x11686 (forall ((w (_ BitVec 256)) )(let ((?x4370 (storage_s x_0 x_1 x_2 w_3 2 w)))
 (let ((?x9166 (storage_s x_0 x_1 x_2 w_3 3 w)))
 (= ?x9166 ?x4370))))
 ))
 (let (($x8481 (forall ((n (_ BitVec 6)) )(let ((?x8097 (stack_s x_0 x_1 x_2 w_3 2 n)))
 (let ((?x4766 (stack_s x_0 x_1 x_2 w_3 3 n)))
 (let ((?x218 (sc_s 2)))
 (let (($x1048 (bvsle ?x218 n)))
 (or $x1048 (= ?x4766 ?x8097)))))))
 ))
 (let ((?x275 (sc_s 3)))
 (let (($x2806 (= ?x275 (bvadd (_ bv1 6) (sc_s 2)))))
 (let ((?x3516 (used_gas_s x_0 x_1 x_2 w_3 3)))
 (let (($x9102 (not (= ((_ extract 6 6) (bvadd (_ bv1 7) (concat (_ bv0 1) (sc_s 1)))) (_ bv0 1)))))
 (let (($x189 (exc_halt_s 1)))
 (let (($x4478 (forall ((w (_ BitVec 256)) )(let ((?x125 (storage_s x_0 x_1 x_2 w_3 1 w)))
 (let ((?x4370 (storage_s x_0 x_1 x_2 w_3 2 w)))
 (= ?x4370 ?x125))))
 ))
 (let (($x10377 (forall ((n (_ BitVec 6)) )(let ((?x2023 (stack_s x_0 x_1 x_2 w_3 1 n)))
 (let ((?x8097 (stack_s x_0 x_1 x_2 w_3 2 n)))
 (or (bvsle (bvadd (_ bv60 6) (sc_s 1)) n) (= ?x8097 ?x2023)))))
 ))
 (let ((?x218 (sc_s 2)))
 (let (($x4816 (= ?x218 (bvadd (_ bv1 6) (sc_s 1)))))
 (let ((?x20 (used_gas_s x_0 x_1 x_2 w_3 2)))
 (let ((?x154 (sc_s 1)))
 (let ((?x11015 (bvadd (_ bv63 6) ?x154)))
 (let ((?x10661 (stack_s x_0 x_1 x_2 w_3 1 ?x11015)))
 (let (($x7773 (= (stack_s x_0 x_1 x_2 w_3 2 (bvadd (_ bv62 6) ?x154)) (stack_s x_0 x_1 x_2 w_3 1 (bvadd (_ bv62 6) ?x154)))))
 (let (($x10305 (= (stack_s x_0 x_1 x_2 w_3 2 (bvadd (_ bv61 6) ?x154)) (stack_s x_0 x_1 x_2 w_3 1 (bvadd (_ bv61 6) ?x154)))))
 (let ((?x4453 (bvadd (_ bv60 6) ?x154)))
 (let ((?x10151 (stack_s x_0 x_1 x_2 w_3 1 ?x4453)))
 (let (($x9493 (or $x57 (not (= ((_ extract 6 6) (bvadd (_ bv1 7) (concat (_ bv0 1) ?x72))) (_ bv0 1))) (not (bvsle (_ bv0 6) (bvadd (_ bv62 6) ?x72))))))
 (let (($x5559 (forall ((w (_ BitVec 256)) )(let ((?x4935 (storage_s x_0 x_1 x_2 w_3 0 w)))
 (let ((?x125 (storage_s x_0 x_1 x_2 w_3 1 w)))
 (= ?x125 ?x4935))))
 ))
 (let (($x8598 (forall ((n (_ BitVec 6)) )(let ((?x6839 (stack_s x_0 x_1 x_2 w_3 0 n)))
 (let ((?x2023 (stack_s x_0 x_1 x_2 w_3 1 n)))
 (or (bvsle (bvadd (_ bv62 6) (sc_s 0)) n) (= ?x2023 ?x6839)))))
 ))
 (let (($x3175 (= (stack_s x_0 x_1 x_2 w_3 1 (bvadd (_ bv63 6) ?x72)) (stack_s x_0 x_1 x_2 w_3 0 (bvadd (_ bv63 6) ?x72)))))
 (let ((?x360 (bvadd (_ bv62 6) ?x72)))
 (let ((?x6338 (stack_s x_0 x_1 x_2 w_3 0 ?x360)))
 (let (($x7846 (forall ((w (_ BitVec 256)) )(let ((?x4935 (storage_s x_0 x_1 x_2 w_3 0 w)))
 (= ?x4935 (_ bv0 256))))
 ))
 (let (($x306 (= ?x1224 0)))
 (let (($x2084 (not $x57)))
 (let (($x3440 (= (stack_s x_0 x_1 x_2 w_3 0 (_ bv2 6)) x_2)))
 (let (($x8420 (= (stack_s x_0 x_1 x_2 w_3 0 (_ bv1 6)) x_1)))
 (let (($x3126 (= (stack_s x_0 x_1 x_2 w_3 0 (_ bv0 6)) x_0)))
 (let (($x7781 (= ?x72 (_ bv3 6))))
 (and $x7781 $x3126 $x8420 $x3440 $x2084 $x306 $x7846 (= ?x10661 ?x6338) (= (stack_s x_0 x_1 x_2 w_3 1 ?x360) ?x6338) $x3175 (= (used_gas_s x_0 x_1 x_2 w_3 1) (+ 3 ?x1224)) (= ?x154 (bvadd (_ bv1 6) ?x72)) $x8598 $x5559 (= $x189 $x9493) (= (stack_s x_0 x_1 x_2 w_3 2 (bvadd (_ bv63 6) ?x218)) ?x10151) (= (stack_s x_0 x_1 x_2 w_3 2 ?x4453) ?x10151) $x10305 $x7773 (= (stack_s x_0 x_1 x_2 w_3 2 ?x11015) ?x10661) (= ?x20 (+ 3 (used_gas_s x_0 x_1 x_2 w_3 1))) $x4816 $x10377 $x4478 (= $x247 (or $x189 (not (bvsle (_ bv0 6) ?x4453)) $x9102)) (= (stack_s x_0 x_1 x_2 w_3 3 ?x218) w_3) (= ?x3516 (+ 3 ?x20)) $x2806 $x8481 $x11686 $x4286 $x4241 $x6279 (= ?x1279 (+ 3 ?x3516)) (= ?x4305 ?x275) $x7703 $x4154 $x3661 $x1998 (= (stack_s x_0 x_1 x_2 w_3 5 (bvadd (_ bv61 6) ?x4319)) ?x6799) (= (stack_s x_0 x_1 x_2 w_3 5 (bvadd (_ bv62 6) ?x4319)) ?x4255) $x3949 $x11146 $x10676 $x9497 $x8386 (= (stack_t x_0 x_1 x_2 w_3 1 (bvadd (_ bv63 6) ?x7154)) ?x4541) (= (stack_t x_0 x_1 x_2 w_3 1 ?x7003) ?x4541) $x1288 $x2920 (= (used_gas_t x_0 x_1 x_2 w_3 1) (+ 3 ?x753)) $x4376 $x2623 $x7581 (= $x8377 (or $x56 $x2246 (not (bvsle (_ bv0 6) ?x7003)))) (= (stack_t x_0 x_1 x_2 w_3 2 ?x7154) w_3) (= ?x10077 (+ 3 (used_gas_t x_0 x_1 x_2 w_3 1))) $x912 $x3313 $x11418 $x7807 (= (stack_t x_0 x_1 x_2 w_3 3 (bvadd (_ bv63 6) ?x11304)) ?x3505) (= (stack_t x_0 x_1 x_2 w_3 3 ?x1786) ?x3505) $x9413 $x146 $x8109 $x1932 (= ?x11304 (bvadd (_ bv1 6) ?x6158)) $x10319 $x6313 (= $x3614 $x1234) $x73 $x7959 $x58 $x5331 $x3048 (not (and $x1839 $x11594 $x3494 $x6175))))))))))))))))))))))))))))))))))))))))))))))))))))))))))))))))))))))))))))))))))))))))))))))))))))))))
 )
(check-sat)
(get-proof)
